26756.27,48.82,53.76
28073.61,46.53,51.24
23964.29,54.5,60.02
27967.12,46.7,51.43
24720.27,52.84,58.19
23463.88,55.67,61.3
28331.61,46.1,50.77
25637.96,50.95,56.11
29492.93,44.29,48.77
26305.4,49.65,54.68
28134.65,46.43,51.13
30117.82,43.37,47.76
27191.61,48.04,52.9
29253.79,44.65,49.17
25318.85,51.59,56.81
26321.71,49.62,54.65
25876.22,50.48,55.59
28727.68,45.47,50.07
23696.36,55.12,60.7
26547.58,49.2,54.18
